# Created by Octave 5.1.0, Wed Mar 20 22:55:32 2019 CET <gboehl@dyfn>
# name: modelbase
# type: scalar struct
# ndims: 2
 1 1
# length: 31
# name: option
# type: matrix
# rows: 1
# columns: 6
 0 1 0 1 0 0


# name: results
# type: sq_string
# elements: 1
# length: 11
results.xls


# name: horizon
# type: scalar
20


# name: maxhorizon
# type: scalar
100


# name: modelsvec
# type: matrix
# rows: 1
# columns: 128
 0 0 0 0 0 0 0 0 0 0 0 0 0 0 0 0 0 1 0 0 0 0 0 0 0 0 0 0 0 0 0 0 0 0 0 0 0 0 0 0 0 0 0 0 0 0 0 0 0 0 0 0 0 0 0 0 0 0 0 0 0 0 0 0 0 0 0 0 0 0 0 0 0 0 0 0 0 0 0 0 0 0 0 0 0 0 0 0 0 0 0 0 0 0 0 0 0 0 0 0 0 0 0 0 0 0 0 0 0 0 0 0 0 0 0 0 0 0 0 0 0 0 0 0 0 0 0 0


# name: rule
# type: matrix
# rows: 1
# columns: 11
 0 0 0 0 0 1 0 0 0 0 0


# name: data
# type: matrix
# rows: 9
# columns: 4
 NaN 0.39000000000000001 0 0.96999999999999997
 0.81000000000000005 0 0 -0.90000000000000002
 0 0 0 0
 0 0 0 0
 0 0 0 0
 NaN 0 0 0
 NaN 0 0 0
 NaN 0 0 0
 NaN 0 0 0


# name: shocks
# type: matrix
# rows: 1
# columns: 2
 1 1


# name: gain
# type: scalar
0.01


# name: returnres
# type: scalar
20


# name: names
# type: sq_string
# elements: 128
# length: 14
NK_RW97       
# length: 14
NK_LWW03      
# length: 14
NK_CGG99      
# length: 14
NK_CGG02      
# length: 14
NK_MCN99cr    
# length: 14
NK_IR04       
# length: 14
NK_BGG99      
# length: 14
NK_GM05       
# length: 14
NK_GK09lin    
# length: 14
NK_CK08       
# length: 14
NK_CKL09      
# length: 14
NK_RW06       
# length: 14
US_CMR14noFA  
# length: 14
US_CMR14      
# length: 14
US_FRB03      
# length: 14
US_FRB08      
# length: 14
US_FRB08mx    
# length: 14
US_SW07       
# length: 14
US_ACELm      
# length: 14
US_ACELt      
# length: 14
US_ACELswm    
# length: 14
US_ACELswt    
# length: 14
US_RS99       
# length: 14
US_OR03       
# length: 14
US_PM08       
# length: 14
US_PM08fl     
# length: 14
US_DG08       
# length: 14
US_CD08       
# length: 14
US_IAC05      
# length: 14
US_MR07       
# length: 14
US_RA07       
# length: 14
US_CCTW10     
# length: 14
US_IR11       
# length: 14
EA_CW05ta     
# length: 14
EA_CW05fm     
# length: 14
EA_AWM05      
# length: 14
EA_SW03       
# length: 14
EA_SR07       
# length: 14
EA_QUEST3     
# length: 14
EA_CKL09      
# length: 14
EA_GE10       
# length: 14
G7_TAY93      
# length: 14
G3_CW03       
# length: 14
EACZ_GEM03    
# length: 14
G2_SIGMA08    
# length: 14
EAUS_NAWM08   
# length: 14
EAES_RA09     
# length: 14
CL_MS07       
# length: 14
BRA_SAMBA08   
# length: 14
CA_LS07       
# length: 14
HK_FPP11      
# length: 14
US_IN10       
# length: 14
US_CMR10      
# length: 14
US_CMR10fa    
# length: 14
US_VMDno      
# length: 14
US_VMDop      
# length: 14
EA_GNSS10     
# length: 14
NK_MM10       
# length: 14
NK_KRS12      
# length: 14
HK_FP13       
# length: 14
EAUS_NAWMctww 
# length: 14
NK_CW09       
# length: 14
GPM6_IMF13    
# length: 14
CA_BMZ12      
# length: 14
NK_GK11       
# length: 14
US_FM95       
# length: 14
US_OW98       
# length: 14
EA_QR14       
# length: 14
NK_RW97AL     
# length: 14
NK_LWW03AL    
# length: 14
NK_CGG99AL    
# length: 14
NK_CGG02AL    
# length: 14
NK_IR04AL     
# length: 14
NK_BGG99AL    
# length: 14
NK_RW06AL     
# length: 14
US_FM95AL     
# length: 14
US_SW07AL     
# length: 14
US_MI07AL     
# length: 14
US_YR13AL     
# length: 14
NK_ET14       
# length: 14
NK_GK13       
# length: 14
EA_DKR11      
# length: 14
NK_BGEU10     
# length: 14
NK_BGUS10     
# length: 14
RBC_DTT11     
# length: 14
US_CFOP14     
# length: 14
US_JPT11      
# length: 14
US_CPS10      
# length: 14
NK_NS14       
# length: 14
US_DNGS15     
# length: 14
US_FMS134     
# length: 14
NK_AFL15      
# length: 14
US_FGKR15     
# length: 14
EA_PV15       
# length: 14
NK_CFP10      
# length: 14
NK_GM07       
# length: 14
NK_KW16       
# length: 14
NK_MPT10      
# length: 14
NK_PP17       
# length: 14
NK_PSV16      
# length: 14
NK_RA16       
# length: 14
NK_ST13       
# length: 14
US_AJ16       
# length: 14
US_CFP17endo  
# length: 14
US_CFP17exo   
# length: 14
US_DNGS15_SW  
# length: 14
US_DNGS15_SWpi
# length: 14
US_DNGS15_SWSP
# length: 14
US_FV10       
# length: 14
US_FV15       
# length: 14
US_IR15       
# length: 14
US_LWY13      
# length: 14
US_RE09       
# length: 14
NK_GLSV07     
# length: 14
US_BKM12      
# length: 14
NK_MI14       
# length: 14
NK_KM16       
# length: 14
EA_BE15       
# length: 14
EA_BF17       
# length: 14
FI_AINO16     
# length: 14
NK_GSSZ17     
# length: 14
NK_GM16       
# length: 14
NK_GS14       
# length: 14
NK_FLMF18     
# length: 14
EA_PV16       
# length: 14
EA_PV17       
# length: 14
US_PV15       
# length: 14
NK_GHP16      


# name: variabledim
# type: matrix
# rows: 128
# columns: 1
 1
 1
 1
 1
 2
 1
 1
 2
 1
 1
 1
 1
 2
 2
 2
 2
 2
 1
 1
 1
 1
 1
 1
 1
 1
 1
 1
 2
 1
 1
 1
 1
 1
 2
 2
 1
 1
 1
 2
 1
 1
 2
 2
 2
 1
 1
 1
 1
 2
 1
 1
 2
 2
 2
 2
 2
 2
 2
 1
 1
 1
 1
 1
 2
 2
 1
 1
 2
 1
 1
 1
 1
 1
 1
 1
 1
 1
 1
 1
 2
 1
 2
 1
 1
 2
 1
 1
 1
 1
 1
 1
 1
 1
 1
 1
 1
 2
 2
 1
 1
 1
 2
 1
 1
 1
 1
 1
 1
 1
 1
 1
 1
 1
 1
 1
 1
 1
 1
 1
 1
 1
 1
 1
 1
 1
 1
 1
 1


# name: rulenames
# type: sq_string
# elements: 11
# length: 36
User specified rule                 
# length: 36
Model Specific Policy Rule          
# length: 36
Taylor (1993)                       
# length: 36
Gerdesmeier and Roffia (2003)       
# length: 36
Levin, Wieland, Williams (2003)     
# length: 36
Smets and Wouters US (2007)         
# length: 36
Christiano, Eichenbaum, Evans (2005)
# length: 36
Orphanides and Wieland (2008)       
# length: 36
Orphanides and Wieland (2013)       
# length: 36
Coenen et al. (2012)                
# length: 36
Chistiano, Motto, Rostagno (2014)   


# name: rulenamesshort
# type: sq_string
# elements: 11
# length: 12
User rule   
# length: 12
Model rule  
# length: 12
Taylor rule 
# length: 12
GR rule     
# length: 12
LWW rule    
# length: 12
SW rule     
# length: 12
CEE rule    
# length: 12
OW08 rule   
# length: 12
OW13 rule   
# length: 12
Coenen rule 
# length: 12
CMR rule    


# name: rulenamesshort1
# type: sq_string
# elements: 11
# length: 12
User_Rule   
# length: 12
Model_Rule  
# length: 12
Taylor_Rule 
# length: 12
GR_Rule     
# length: 12
LWW_Rule    
# length: 12
SW_Rule     
# length: 12
CEE_Rule    
# length: 12
OW08_Rule   
# length: 12
OW13_Rule   
# length: 12
Coenen_Rule 
# length: 12
CMR_Rule    


# name: rulelegend
# type: matrix
# rows: 0
# columns: 0


# name: common_rule
# type: matrix
# rows: 11
# columns: 33
 0 0 0 0 0 0 0 0 0 0 0 0 0 0 0 0 0 0 0 0 0 0 0 0 0 0 0 0 0 0 0 0 0
 0 0 0 0 0 0 0 0 0 0 0 0 0 0 0 0 0 0 0 0 0 0 0 0 0 0 0 0 0 0 0 0 0
 0 0 0 0 0.375 0.375 0.375 0.375 0 0 0 0 0 0.5 0 0 0 0 0 0 0 0 0 0 0 0 0 0 0 0 0 1 0.25
 0.65850299999999995 0 0 0 0.16477230250000002 0.16477230250000002 0.16477230250000002 0.16477230250000002 0 0 0 0 0 0.095619160000000022 0 0 0 0 0 0 0 0 0 0 0 0 0 0 0 0 0 1 0.25
 0.75522599999999995 0 0 0 0.15067274999999999 0.15067274999999999 0.15067274999999999 0.15067274999999999 0 0 0 0 0 1.1761600000000001 -0.97238999999999998 0 0 0 0 0 0 0 0 0 0 0 0 0 0 0 0 1 0.25
 0.81030000000000002 0 0 0 0.38780370999999991 0 0 0 0 0 0 0 0 0.96572616 -0.89880000000000004 0 0 0 0 0 0 0 0 0 0 0 0 0 0 0 0 1 0.25
 0.80000000000000004 0 0 0 0 0 0 0 0 0.29999999999999993 0 0 0 0.079999999999999988 0 0 0 0 0 0 0 0 0 0 0 0 0 0 0 0 0 1 0.25
 0 0 0 0 0.58499999999999996 0 0 0 0 0.58499999999999996 0.58499999999999996 0.58499999999999996 0 0 0 0 0 0 0 0 0.76500000000000001 0 0 0 0 0 0 0 0 0 0 1 0.25
 1 0 0 0 0.125 0.125 0.125 0.125 0 0 0 0 0 0.5 0 0 0 -0.5 0 0 0 0 0 0 0 0 0 0 0 0 0 1 0.25
 0.69999999999999996 0 0 0 1.25 0 0 0 0 0 0 0 1.25 0 0 0 0 0 0 0 0 0 0 0 0 0 0 0 0 0 0 1 0.25
 0.85029645030000001 0 0 0 0 0 0 0 0 0.36092040616339149 0 0 0 0 0 0 0 0 0 0 0 0 0.054858691063503745 -0.054858691063503745 0 0 0 0 0 0 0 1 0.25


# name: AL_Models
# type: matrix
# rows: 1
# columns: 11
 69 70 71 72 73 74 75 76 77 78 79


# name: homepath
# type: sq_string
# elements: 1
# length: 63
/home/gboehl/repos/mmb-gui-electron/static/mmci-cli/MMB_OPTIONS


# name: uphomepath
# type: sq_string
# elements: 1
# length: 51
/home/gboehl/repos/mmb-gui-electron/static/mmci-cli


# name: totaltime
# type: scalar
0.87479200000000001


# name: models
# type: scalar
18


# name: savepath
# type: sq_string
# elements: 1
# length: 70
/home/gboehl/repos/mmb-gui-electron/static/mmci-cli/OUTPUT/results.xls


# name: AL
# type: bool
0


# name: modelchosen
# type: scalar
18


# name: info
# type: matrix
# rows: 11
# columns: 1
 1
 1
 1
 1
 1
 1
 1
 1
 1
 1
 1


# name: rulerank
# type: scalar
0


# name: namesshocks
# type: sq_string
# elements: 2
# length: 21
Mon. Pol. Shock      
# length: 21
Fiscal Pol. Shock    


# name: namesinnos
# type: sq_string
# elements: 2
# length: 9
interest_
# length: 9
fiscal_  


# name: innos
# type: sq_string
# elements: 2
# length: 9
interest_
# length: 9
fiscal_  


# name: l
# type: scalar
6




# name: modelbase
# type: scalar struct
# ndims: 2
 1 1
# length: 34
# name: option
# type: matrix
# rows: 1
# columns: 6
 0 1 0 1 0 0


# name: results
# type: sq_string
# elements: 1
# length: 11
results.xls


# name: horizon
# type: scalar
20


# name: maxhorizon
# type: scalar
100


# name: modelsvec
# type: matrix
# rows: 1
# columns: 128
 0 0 0 0 0 0 0 0 0 0 0 0 0 0 0 0 0 1 0 0 0 0 0 0 0 0 0 0 0 0 0 0 0 0 0 0 0 0 0 0 0 0 0 0 0 0 0 0 0 0 0 0 0 0 0 0 0 0 0 0 0 0 0 0 0 0 0 0 0 0 0 0 0 0 0 0 0 0 0 0 0 0 0 0 0 0 0 0 0 0 0 0 0 0 0 0 0 0 0 0 0 0 0 0 0 0 0 0 0 0 0 0 0 0 0 0 0 0 0 0 0 0 0 0 0 0 0 0


# name: rule
# type: matrix
# rows: 1
# columns: 11
 0 0 0 0 0 1 0 0 0 0 0


# name: data
# type: matrix
# rows: 9
# columns: 4
 NaN 0.39000000000000001 0 0.96999999999999997
 0.81000000000000005 0 0 -0.90000000000000002
 0 0 0 0
 0 0 0 0
 0 0 0 0
 NaN 0 0 0
 NaN 0 0 0
 NaN 0 0 0
 NaN 0 0 0


# name: shocks
# type: matrix
# rows: 1
# columns: 2
 1 1


# name: gain
# type: scalar
0.01


# name: returnres
# type: scalar
20


# name: names
# type: sq_string
# elements: 128
# length: 14
NK_RW97       
# length: 14
NK_LWW03      
# length: 14
NK_CGG99      
# length: 14
NK_CGG02      
# length: 14
NK_MCN99cr    
# length: 14
NK_IR04       
# length: 14
NK_BGG99      
# length: 14
NK_GM05       
# length: 14
NK_GK09lin    
# length: 14
NK_CK08       
# length: 14
NK_CKL09      
# length: 14
NK_RW06       
# length: 14
US_CMR14noFA  
# length: 14
US_CMR14      
# length: 14
US_FRB03      
# length: 14
US_FRB08      
# length: 14
US_FRB08mx    
# length: 14
US_SW07       
# length: 14
US_ACELm      
# length: 14
US_ACELt      
# length: 14
US_ACELswm    
# length: 14
US_ACELswt    
# length: 14
US_RS99       
# length: 14
US_OR03       
# length: 14
US_PM08       
# length: 14
US_PM08fl     
# length: 14
US_DG08       
# length: 14
US_CD08       
# length: 14
US_IAC05      
# length: 14
US_MR07       
# length: 14
US_RA07       
# length: 14
US_CCTW10     
# length: 14
US_IR11       
# length: 14
EA_CW05ta     
# length: 14
EA_CW05fm     
# length: 14
EA_AWM05      
# length: 14
EA_SW03       
# length: 14
EA_SR07       
# length: 14
EA_QUEST3     
# length: 14
EA_CKL09      
# length: 14
EA_GE10       
# length: 14
G7_TAY93      
# length: 14
G3_CW03       
# length: 14
EACZ_GEM03    
# length: 14
G2_SIGMA08    
# length: 14
EAUS_NAWM08   
# length: 14
EAES_RA09     
# length: 14
CL_MS07       
# length: 14
BRA_SAMBA08   
# length: 14
CA_LS07       
# length: 14
HK_FPP11      
# length: 14
US_IN10       
# length: 14
US_CMR10      
# length: 14
US_CMR10fa    
# length: 14
US_VMDno      
# length: 14
US_VMDop      
# length: 14
EA_GNSS10     
# length: 14
NK_MM10       
# length: 14
NK_KRS12      
# length: 14
HK_FP13       
# length: 14
EAUS_NAWMctww 
# length: 14
NK_CW09       
# length: 14
GPM6_IMF13    
# length: 14
CA_BMZ12      
# length: 14
NK_GK11       
# length: 14
US_FM95       
# length: 14
US_OW98       
# length: 14
EA_QR14       
# length: 14
NK_RW97AL     
# length: 14
NK_LWW03AL    
# length: 14
NK_CGG99AL    
# length: 14
NK_CGG02AL    
# length: 14
NK_IR04AL     
# length: 14
NK_BGG99AL    
# length: 14
NK_RW06AL     
# length: 14
US_FM95AL     
# length: 14
US_SW07AL     
# length: 14
US_MI07AL     
# length: 14
US_YR13AL     
# length: 14
NK_ET14       
# length: 14
NK_GK13       
# length: 14
EA_DKR11      
# length: 14
NK_BGEU10     
# length: 14
NK_BGUS10     
# length: 14
RBC_DTT11     
# length: 14
US_CFOP14     
# length: 14
US_JPT11      
# length: 14
US_CPS10      
# length: 14
NK_NS14       
# length: 14
US_DNGS15     
# length: 14
US_FMS134     
# length: 14
NK_AFL15      
# length: 14
US_FGKR15     
# length: 14
EA_PV15       
# length: 14
NK_CFP10      
# length: 14
NK_GM07       
# length: 14
NK_KW16       
# length: 14
NK_MPT10      
# length: 14
NK_PP17       
# length: 14
NK_PSV16      
# length: 14
NK_RA16       
# length: 14
NK_ST13       
# length: 14
US_AJ16       
# length: 14
US_CFP17endo  
# length: 14
US_CFP17exo   
# length: 14
US_DNGS15_SW  
# length: 14
US_DNGS15_SWpi
# length: 14
US_DNGS15_SWSP
# length: 14
US_FV10       
# length: 14
US_FV15       
# length: 14
US_IR15       
# length: 14
US_LWY13      
# length: 14
US_RE09       
# length: 14
NK_GLSV07     
# length: 14
US_BKM12      
# length: 14
NK_MI14       
# length: 14
NK_KM16       
# length: 14
EA_BE15       
# length: 14
EA_BF17       
# length: 14
FI_AINO16     
# length: 14
NK_GSSZ17     
# length: 14
NK_GM16       
# length: 14
NK_GS14       
# length: 14
NK_FLMF18     
# length: 14
EA_PV16       
# length: 14
EA_PV17       
# length: 14
US_PV15       
# length: 14
NK_GHP16      


# name: variabledim
# type: matrix
# rows: 128
# columns: 1
 1
 1
 1
 1
 2
 1
 1
 2
 1
 1
 1
 1
 2
 2
 2
 2
 2
 1
 1
 1
 1
 1
 1
 1
 1
 1
 1
 2
 1
 1
 1
 1
 1
 2
 2
 1
 1
 1
 2
 1
 1
 2
 2
 2
 1
 1
 1
 1
 2
 1
 1
 2
 2
 2
 2
 2
 2
 2
 1
 1
 1
 1
 1
 2
 2
 1
 1
 2
 1
 1
 1
 1
 1
 1
 1
 1
 1
 1
 1
 2
 1
 2
 1
 1
 2
 1
 1
 1
 1
 1
 1
 1
 1
 1
 1
 1
 2
 2
 1
 1
 1
 2
 1
 1
 1
 1
 1
 1
 1
 1
 1
 1
 1
 1
 1
 1
 1
 1
 1
 1
 1
 1
 1
 1
 1
 1
 1
 1


# name: rulenames
# type: sq_string
# elements: 11
# length: 36
User specified rule                 
# length: 36
Model Specific Policy Rule          
# length: 36
Taylor (1993)                       
# length: 36
Gerdesmeier and Roffia (2003)       
# length: 36
Levin, Wieland, Williams (2003)     
# length: 36
Smets and Wouters US (2007)         
# length: 36
Christiano, Eichenbaum, Evans (2005)
# length: 36
Orphanides and Wieland (2008)       
# length: 36
Orphanides and Wieland (2013)       
# length: 36
Coenen et al. (2012)                
# length: 36
Chistiano, Motto, Rostagno (2014)   


# name: rulenamesshort
# type: sq_string
# elements: 11
# length: 12
User rule   
# length: 12
Model rule  
# length: 12
Taylor rule 
# length: 12
GR rule     
# length: 12
LWW rule    
# length: 12
SW rule     
# length: 12
CEE rule    
# length: 12
OW08 rule   
# length: 12
OW13 rule   
# length: 12
Coenen rule 
# length: 12
CMR rule    


# name: rulenamesshort1
# type: sq_string
# elements: 11
# length: 12
User_Rule   
# length: 12
Model_Rule  
# length: 12
Taylor_Rule 
# length: 12
GR_Rule     
# length: 12
LWW_Rule    
# length: 12
SW_Rule     
# length: 12
CEE_Rule    
# length: 12
OW08_Rule   
# length: 12
OW13_Rule   
# length: 12
Coenen_Rule 
# length: 12
CMR_Rule    


# name: rulelegend
# type: matrix
# rows: 0
# columns: 0


# name: common_rule
# type: matrix
# rows: 11
# columns: 33
 0 0 0 0 0 0 0 0 0 0 0 0 0 0 0 0 0 0 0 0 0 0 0 0 0 0 0 0 0 0 0 0 0
 0 0 0 0 0 0 0 0 0 0 0 0 0 0 0 0 0 0 0 0 0 0 0 0 0 0 0 0 0 0 0 0 0
 0 0 0 0 0.375 0.375 0.375 0.375 0 0 0 0 0 0.5 0 0 0 0 0 0 0 0 0 0 0 0 0 0 0 0 0 1 0.25
 0.65850299999999995 0 0 0 0.16477230250000002 0.16477230250000002 0.16477230250000002 0.16477230250000002 0 0 0 0 0 0.095619160000000022 0 0 0 0 0 0 0 0 0 0 0 0 0 0 0 0 0 1 0.25
 0.75522599999999995 0 0 0 0.15067274999999999 0.15067274999999999 0.15067274999999999 0.15067274999999999 0 0 0 0 0 1.1761600000000001 -0.97238999999999998 0 0 0 0 0 0 0 0 0 0 0 0 0 0 0 0 1 0.25
 0.81030000000000002 0 0 0 0.38780370999999991 0 0 0 0 0 0 0 0 0.96572616 -0.89880000000000004 0 0 0 0 0 0 0 0 0 0 0 0 0 0 0 0 1 0.25
 0.80000000000000004 0 0 0 0 0 0 0 0 0.29999999999999993 0 0 0 0.079999999999999988 0 0 0 0 0 0 0 0 0 0 0 0 0 0 0 0 0 1 0.25
 0 0 0 0 0.58499999999999996 0 0 0 0 0.58499999999999996 0.58499999999999996 0.58499999999999996 0 0 0 0 0 0 0 0 0.76500000000000001 0 0 0 0 0 0 0 0 0 0 1 0.25
 1 0 0 0 0.125 0.125 0.125 0.125 0 0 0 0 0 0.5 0 0 0 -0.5 0 0 0 0 0 0 0 0 0 0 0 0 0 1 0.25
 0.69999999999999996 0 0 0 1.25 0 0 0 0 0 0 0 1.25 0 0 0 0 0 0 0 0 0 0 0 0 0 0 0 0 0 0 1 0.25
 0.85029645030000001 0 0 0 0 0 0 0 0 0.36092040616339149 0 0 0 0 0 0 0 0 0 0 0 0 0.054858691063503745 -0.054858691063503745 0 0 0 0 0 0 0 1 0.25


# name: AL_Models
# type: matrix
# rows: 1
# columns: 11
 69 70 71 72 73 74 75 76 77 78 79


# name: homepath
# type: sq_string
# elements: 1
# length: 63
/home/gboehl/repos/mmb-gui-electron/static/mmci-cli/MMB_OPTIONS


# name: uphomepath
# type: sq_string
# elements: 1
# length: 51
/home/gboehl/repos/mmb-gui-electron/static/mmci-cli


# name: totaltime
# type: scalar
0.87479200000000001


# name: models
# type: scalar
18


# name: savepath
# type: sq_string
# elements: 1
# length: 70
/home/gboehl/repos/mmb-gui-electron/static/mmci-cli/OUTPUT/results.xls


# name: AL
# type: bool
0


# name: modelchosen
# type: scalar
18


# name: info
# type: matrix
# rows: 11
# columns: 1
 1
 1
 1
 1
 1
 1
 1
 1
 1
 1
 1


# name: rulerank
# type: scalar
0


# name: namesshocks
# type: sq_string
# elements: 2
# length: 21
Mon. Pol. Shock      
# length: 21
Fiscal Pol. Shock    


# name: namesinnos
# type: sq_string
# elements: 2
# length: 9
interest_
# length: 9
fiscal_  


# name: innos
# type: sq_string
# elements: 2
# length: 9
interest_
# length: 9
fiscal_  


# name: l
# type: scalar
6


# name: modeltime
# type: matrix
# rows: 1
# columns: 18
 0 0 0 0 0 0 0 0 0 0 0 0 0 0 0 0 0 0.94422300000000003


# name: setpath
# type: sq_string
# elements: 18
# length: 66
                                                                  
# length: 66
                                                                  
# length: 66
                                                                  
# length: 66
                                                                  
# length: 66
                                                                  
# length: 66
                                                                  
# length: 66
                                                                  
# length: 66
                                                                  
# length: 66
                                                                  
# length: 66
                                                                  
# length: 66
                                                                  
# length: 66
                                                                  
# length: 66
                                                                  
# length: 66
                                                                  
# length: 66
                                                                  
# length: 66
                                                                  
# length: 66
                                                                  
# length: 66
/home/gboehl/repos/mmb-gui-electron/static/mmci-cli/MODELS/US_SW07


# name: epsilon
# type: scalar
1




    @                             	   modelbase         @      Ä
  option                                                          results                                                         horizon                                                         maxhorizon                                                      modelsvec                                                       rule                                                            data                                                            shocks                                                          gain                                                            returnres                                                       names                                                           variabledim                                                     rulenames                                                       rulenamesshort                                                  rulenamesshort1                                                 rulelegend                                                      common_rule                                                     AL_Models                                                       homepath                                                        uphomepath                                                      totaltime                                                       models                                                          savepath                                                        AL                                                              modelchosen                                                     info                                                            rulerank                                                        namesshocks                                                     namesinnos                                                      innos                                                           l                                                               modeltime                                                       epsilon                                                         solution                                                        VAR                                                             VARendo_names                                                   AUTR                                                            AUTendo_names                                                   pos_shock                                                       IRF                                                             IRFendo_names                                                   setpath                                                            `                                  	   0                 ?              ?                   H                                        r e s u l t s . x l s      8                                  	            4@   8                                  	            Y@   0                       Ä          	                                                                                                                                                    ?                                                                                                                                                                                                                                                                                                                                                                                                                                                                                                                                                                                                                                                                                                                                                                                                                                                                                                                   à                                  	   X                                                 ?                                           P                    	             	            ¯ÏQ∏ÖÎÈ?                              ¯      ¯      ¯      ¯ˆ(\è¬ıÿ?                                                                                                                                        
◊£p=